\* NoName *\
Minimize
OBJ: - 2 x0 + 3 x1 - 6 x2 - x3
Subject To
_C1: x0 + 2 x1 + 4 x2 <= 22
_C2: - x0 + x1 - 2 x2 <= -10
_C3: 2 x0 + x1 - 2 x2 + x3 = 24
_C4: x0 + 2 x1 + 3 x2 + 4 x3 = 25
End
